data/benchmarks/bayes/90-16-8-q.cnf
p cnf 1216 1047
c weights 0.168499 0.831501 1 1 1 1 1 1 1 1 1 1 1 1 1 1 1 1 1 1 1 1 1 1 1 1 1 1 1 1 1 1 1 1 1 1 1 1 1 1 1 1 1 1 1 1 1 1 1 1 1 1 1 1 1 1 1 1 1 1 1 1 1 1 1 1 1 1 1 1 1 1 1 1 1 1 1 1 1 1 1 1 1 1 1 1 1 1 1 1 1 1 1 1 1 1 1 1 1 1 1 1 1 1 1 1 1 1 1 1 1 1 1 1 1 1 1 1 1 1 1 1 1 1 1 1 1 1 1 1 1 1 1 1 1 1 1 1 1 1 1 1 1 1 1 1 1 1 1 1 1 1 1 1 1 1 1 1 1 1 1 1 1 1 1 1 1 1 1 1 1 1 1 1 1 1 1 1 1 1 1 1 1 1 1 1 1 1 1 1 1 1 1 1 1 1 1 1 1 1 1 1 1 1 1 1 1 1 1 1 1 1 1 1 1 1 1 1 1 1 1 1 1 1 1 1 1 1 1 1 1 1 1 1 1 1 1 1 1 1 1 1 1 1 1 1 1 1 1 1 1 1 1 1 1 1 1 1 1 1 1 1 1 1 1 1 1 1 1 1 1 1 1 1 1 1 1 1 1 1 1 1 1 1 1 1 1 1 1 1 1 1 1 1 1 1 1 1 1 1 1 1 1 1 1 1 1 1 1 1 1 1 1 1 1 1 1 1 1 1 1 1 1 1 1 1 1 1 1 1 1 1 1 1 1 1 1 1 1 1 1 1 1 1 1 1 1 1 1 1 1 1 1 1 1 1 1 1 1 1 1 1 1 1 1 1 1 1 1 1 1 1 1 1 1 1 1 1 1 1 1 1 1 1 1 1 1 1 1 1 1 1 1 1 1 1 1 1 1 1 1 1 1 1 1 1 1 1 1 1 1 1 1 1 1 1 1 1 1 1 1 1 1 1 1 1 1 1 1 1 1 1 1 1 1 1 1 1 1 1 1 1 1 1 1 1 1 1 1 1 1 1 1 1 1 1 1 1 1 1 1 1 1 1 1 1 1 1 1 1 1 1 1 1 1 1 1 1 1 1 1 1 1 1 1 1 1 1 1 1 1 1 1 1 1 1 1 1 1 1 1 1 1 1 1 1 1 1 1 1 1 1 0.5 0.5 0.5 0.5 0.5 0.5 0.5 0.5 0.5 0.5 0.5 0.5 0.5 0.5 0.5 0.5 0.5 0.5 0.5 0.5 0.5 0.5 0.5 0.5 0.5 0.5 0.5 0.5 0.5 0.5 0.5 0.5 0.5 0.5 0.5 0.5 0.5 0.5 0.5 0.5 0.5 0.5 0.5 0.5 0.489782 0.5102180000000001 0.0506322 0.9493678 0.5 0.5 0.5 0.5 0.692304 0.30769599999999997 0.992579 0.007421000000000011 0.5 0.5 0.5 0.5 0.5 0.5 0.5 0.5 0.504586 0.495414 0.549055 0.45094500000000004 0.671058 0.32894199999999996 0.833714 0.16628600000000004 0.5 0.5 0.5 0.5 0.5 0.5 0.5 0.5 0.5 0.5 0.5 0.5 0.5 0.5 0.5 0.5 0.5 0.5 0.5 0.5 0.5 0.5 0.5 0.5 0.5 0.5 0.5 0.5 0.5 0.5 0.5 0.5 0.5 0.5 0.5 0.5 0.5 0.5 0.5 0.5 0.5 0.5 0.5 0.5 0.5 0.5 0.5 0.5 0.5 0.5 0.5 0.5 0.5 0.5 0.5 0.5 0.0856207 0.9143793 0.263245 0.736755 0.0804005 0.9195995 0.114246 0.885754 0.5 0.5 0.5 0.5 0.5 0.5 0.5 0.5 0.5 0.5 0.5 0.5 0.5 0.5 0.5 0.5 0.5 0.5 0.5 0.5 0.5 0.5 0.5 0.5 0.5 0.5 0.5 0.5 0.5 0.5 0.5 0.5 0.5 0.5 0.5 0.5 0.5 0.5 0.5 0.5 0.5 0.5 0.5 0.5 0.5 0.5 0.5 0.5 0.5 0.5 0.5 0.5 0.5 0.5 0.5 0.5 0.5 0.5 0.5 0.5 0.663098 0.33690200000000003 0.277803 0.722197 0.421189 0.578811 0.275501 0.724499 0.5 0.5 0.5 0.5 0.5 0.5 0.5 0.5 0.5 0.5 0.5 0.5 0.5 0.5 0.5 0.5 0.5 0.5 0.5 0.5 0.5 0.5 0.5 0.5 0.5 0.5 0.5 0.5 0.5 0.5 0.5 0.5 0.5 0.5 0.5 0.5 0.5 0.5 0.5 0.5 0.5 0.5 0.5 0.5 0.5 0.5 0.5 0.5 0.5 0.5 0.5 0.5 0.5 0.5 0.5 0.5 0.5 0.5 0.5 0.5 0.5 0.5 0.5 0.5 0.5 0.5 0.5 0.5 0.5 0.5 0.5 0.5 0.5 0.5 0.5 0.5 0.5 0.5 0.5 0.5 0.5 0.5 0.5 0.5 0.5 0.5 0.5 0.5 0.5 0.5 0.5 0.5 0.5 0.5 0.5 0.5 0.5 0.5 0.5 0.5 0.5 0.5 0.5 0.5 0.5 0.5 0.5 0.5 0.5 0.5 0.5 0.5 0.5 0.5 0.5 0.5 0.5 0.5 0.5 0.5 0.5 0.5 0.5 0.5 0.5 0.5 0.5 0.5 0.5 0.5 0.5 0.5 0.5 0.5 0.5 0.5 0.5 0.5 0.5 0.5 0.5 0.5 0.5 0.5 0.5 0.5 0.5 0.5 0.5 0.5 0.5 0.5 0.5 0.5 0.5 0.5 0.739624 0.26037600000000005 0.193706 0.8062940000000001 0.672852 0.327148 0.128452 0.871548 0.5 0.5 0.5 0.5 0.5 0.5 0.5 0.5 0.959263 0.04073700000000002 0.0176064 0.9823936 0.711078 0.288922 0.577455 0.42254499999999995 0.139853 0.860147 0.137461 0.862539 0.745595 0.254405 0.00626366 0.99373634 0.5 0.5 0.5 0.5 0.5 0.5 0.5 0.5 0.5 0.5 0.5 0.5 0.5 0.5 0.5 0.5 0.5 0.5 0.5 0.5 0.5 0.5 0.5 0.5 0.5 0.5 0.5 0.5 0.5 0.5 0.5 0.5 0.5 0.5 0.5 0.5 0.5 0.5 0.5 0.5 0.5 0.5 0.5 0.5 0.5 0.5 0.5 0.5 0.5 0.5 0.5 0.5 0.5 0.5 0.5 0.5 0.5 0.5 0.5 0.5 0.5 0.5 0.5 0.5 0.5 0.5 0.5 0.5 0.5 0.5 0.5 0.5 0.5 0.5 0.5 0.5 0.5 0.5 0.5 0.5 0.5 0.5 0.5 0.5 0.5 0.5 0.5 0.5 0.5 0.5 0.5 0.5 0.5 0.5 0.5 0.5 0.5 0.5 0.5 0.5 0.5 0.5 0.5 0.5 0.5 0.5 0.5 0.5 0.5 0.5 0.5 0.5 0.5 0.5 0.5 0.5 0.5 0.5 0.5 0.5 0.5 0.5 0.5 0.5 0.5 0.5 0.5 0.5 0.5 0.5 0.5 0.5 0.5 0.5 0.5 0.5 0.5 0.5 0.5 0.5 0.5 0.5 0.5 0.5 0.5 0.5 0.5 0.5 0.5 0.5 0.5 0.5 0.5 0.5 0.5 0.5 0.5 0.5 0.5 0.5 0.5 0.5 0.5 0.5 0.5 0.5 0.5 0.5 0.5 0.5 0.5 0.5 0.5 0.5 0.5 0.5 0.5 0.5 0.5 0.5 0.5 0.5 0.5 0.5 0.5 0.5 0.5 0.5 0.5 0.5 0.5 0.5 0.5 0.5 0.5 0.5 0.5 0.5 0.5 0.5 0.5 0.5 0.5 0.5 0.5 0.5 0.5 0.5 0.5 0.5 0.5 0.5 0.5 0.5 0.5 0.5 0.5 0.5 0.5 0.5 0.5 0.5 0.5 0.5 0.5 0.5 0.5 0.5 0.5 0.5 0.5 0.5 0.5 0.5 0.5 0.5 0.5 0.5 0.5 0.5 0.5 0.5 0.5 0.5 0.5 0.5 0.5 0.5 0.743711 0.256289 0.754178 0.24582199999999998 0.742527 0.25747299999999995 0.0929764 0.9070236 0.5 0.5 0.5 0.5 0.5 0.5 0.5 0.5 0.5 0.5 0.5 0.5 0.5 0.5 0.5 0.5 0.5 0.5 0.5 0.5 0.5 0.5 0.5 0.5 0.5 0.5 0.5 0.5 0.5 0.5 0.5 0.5 0.302405 0.697595 0.60434 0.39566 0.5 0.5 0.5 0.5 0.5 0.5 0.5 0.5 0.5 0.5 0.5 0.5 0.5 0.5 0.5 0.5 0.5 0.5 0.5 0.5 0.5 0.5 0.5 0.5 0.5 0.5 0.5 0.5 0.5 0.5 0.5 0.5 0.5 0.5 0.5 0.5 0.5 0.5 0.5 0.5 0.5 0.5 0.5 0.5 0.5 0.5 0.5 0.5 0.5 0.5 0.5 0.5 0.5 0.5 0.5 0.5 0.5 0.5 0.5 0.5 0.5 0.5 0.5 0.5 0.5 0.5 0.5 0.5 0.5 0.5 0.5 0.5 0.5 0.5 0.5 0.5 0.5 0.5 0.5 0.5 0.5 0.5 0.5 0.5 0.5 0.5 0.5 0.5 0.5 0.5 0.5 0.5 0.5 0.5 0.5 0.5 0.5 0.5 0.5 0.5 0.5 0.5 0.5 0.5 0.5 0.5 0.5 0.5 0.5 0.5 0.5 0.5 0.5 0.5 0.5 0.5 0.5 0.5 0.5 0.5 0.5 0.5 0.5 0.5 0.5 0.5 0.5 0.5 0.5 0.5 0.5 0.5 0.5 0.5 0.5 0.5 0.5 0.5 0.5 0.5 0.5 0.5 0.5 0.5 0.5 0.5 0.5 0.5 0.5 0.5 0.5 0.5 0.5 0.5 0.5 0.5 0.5 0.5 0.5 0.5 0.5 0.5 0.5 0.5 0.5 0.5 0.5 0.5 0.5 0.5 0.5 0.5 0.5 0.5 0.5 0.5 0.5 0.5 0.5 0.5 0.5 0.5 0.5 0.5 0.5 0.5 0.5 0.5 0.5 0.5 0.5 0.5 0.5 0.5 0.5 0.5 0.5 0.5 0.5 0.5 0.5 0.5 0.5 0.5 0.5 0.5 0.5 0.5 0.5 0.5 0.5 0.5 0.5 0.5 0.5 0.5 0.5 0.5 0.5 0.5 0.5 0.5 0.5 0.5 0.5 0.5 0.5 0.5 0.5 0.5 0.5 0.5 0.5 0.5 0.5 0.5 0.5 0.5 0.5 0.5 0.5 0.5 0.5 0.5 0.5 0.5 0.5 0.5 0.5 0.5 0.5 0.5 0.5 0.5 0.5 0.5 0.0579109 0.9420891 0.434959 0.565041 0.361327 0.638673 0.832796 0.16720400000000002 0.5 0.5 0.5 0.5 0.5 0.5 0.5 0.5 0.5 0.5 0.5 0.5 0.5 0.5 0.5 0.5 0.5 0.5 0.5 0.5 0.5 0.5 0.5 0.5 0.5 0.5 0.5 0.5 0.5 0.5 0.5 0.5 0.5 0.5 0.5 0.5 0.5 0.5 0.5 0.5 0.5 0.5 0.5 0.5 0.5 0.5 0.5 0.5 0.5 0.5 0.5 0.5 0.5 0.5 0.5 0.5 0.5 0.5 0.5 0.5 0.5 0.5 0.5 0.5 0.444693 0.555307 0.649142 0.350858 0.694465 0.305535 0.705449 0.294551 0.5 0.5 0.5 0.5 0.5 0.5 0.5 0.5 0.5 0.5 0.5 0.5 0.5 0.5 0.5 0.5 0.5 0.5 0.5 0.5 0.5 0.5 0.5 0.5 0.5 0.5 0.5 0.5 0.5 0.5 0.5 0.5 0.5 0.5 0.5 0.5 0.5 0.5 0.5 0.5 0.5 0.5 0.5 0.5 0.5 0.5 0.5 0.5 0.5 0.5 0.5 0.5 0.5 0.5 0.5 0.5 0.5 0.5 0.5 0.5 0.5 0.5 0.5 0.5 0.5 0.5 0.5 0.5 0.5 0.5 0.5 0.5 0.5 0.5 0.5 0.5 0.5 0.5 0.5 0.5 0.5 0.5 0.5 0.5 0.5 0.5 0.5 0.5 0.5 0.5 0.5 0.5 0.5 0.5 0.5 0.5 0.5 0.5 0.5 0.5 0.5 0.5 0.5 0.5 0.5 0.5 0.5 0.5 0.5 0.5 0.5 0.5 0.5 0.5 0.5 0.5 0.5 0.5 0.5 0.5 0.5 0.5 0.5 0.5 0.5 0.5 0.5 0.5 0.5 0.5 0.5 0.5 0.5 0.5 0.5 0.5 0.5 0.5 0.5 0.5 0.668791 0.331209 0.854791 0.14520900000000003 0.228565 0.771435 0.165661 0.8343389999999999 0.5 0.5 0.5 0.5 0.5 0.5 0.5 0.5 0.878579 0.121421 0.596929 0.40307099999999996 0.5 0.5 0.5 0.5 0.5 0.5 0.5 0.5 0.5 0.5 0.5 0.5 0.5 0.5 0.5 0.5 0.5 0.5 0.5 0.5 0.5 0.5 0.5 0.5 0.5 0.5 0.5 0.5 0.5 0.5 0.5 0.5 0.5 0.5 0.5 0.5 0.5 0.5 0.5 0.5 0.5 0.5 0.5 0.5 0.5 0.5 0.5 0.5 0.5 0.5 0.5 0.5 0.5 0.5 0.5 0.5 0.581715 0.418285 0.432495 0.5675049999999999 0.497917 0.5020830000000001 0.726238 0.27376199999999995 0.5 0.5 0.5 0.5 0.5 0.5 0.5 0.5 0.5 0.5 0.5 0.5 0.5 0.5 0.5 0.5 0.5 0.5 0.5 0.5 0.5 0.5 0.5 0.5 0.989229 0.010770999999999975 0.140755 0.859245 0.0829219 0.9170781 0.223448 0.776552 0.906925 0.09307500000000002 0.974494 0.02550600000000003 0.296589 0.703411 0.975671 0.024329000000000045 0.5 0.5 0.5 0.5 0.5 0.5 0.5 0.5 0.5 0.5 0.5 0.5 0.5 0.5 0.5 0.5 0.5 0.5 0.5 0.5 0.609772 0.390228 0.159228 0.840772 0.201369 0.798631 0.231907 0.768093 0.5 0.5 0.5 0.5 0.5 0.5 0.5 0.5 0.5 0.5 0.5 0.5 0.5 0.5 0.5 0.5 0.5 0.5 0.5 0.5 0.5 0.5 0.5 0.5 0.5 0.5 0.5 0.5 0.5 0.5 0.5 0.5 0.5 0.5 0.5 0.5 0.5 0.5 0.5 0.5 0.5 0.5 0.5 0.5 0.5 0.5 0.5 0.5 0.5 0.5 0.5 0.5 0.5 0.5 0.5 0.5 0.5 0.5 0.5 0.5 0.5 0.5 0.5 0.5 0.5 0.5 0.5 0.5 0.5 0.5 0.5 0.5 0.5 0.5 0.5 0.5 0.5 0.5 0.5 0.5 0.5 0.5 0.5 0.5 0.5 0.5 0.5 0.5 0.5 0.5 0.5 0.5 0.5 0.5 0.5 0.5 0.5 0.5 0.5 0.5 0.5 0.5 0.5 0.5 0.5 0.5 0.5 0.5 0.5 0.5 0.5 0.5 0.5 0.5 0.5 0.5 0.5 0.5 0.5 0.5 0.5 0.5 0.5 0.5 0.5 0.5 0.5 0.5 0.5 0.5 0.5 0.5 0.5 0.5 0.5 0.5 0.5 0.5 0.5 0.5 0.5 0.5 0.5 0.5 0.5 0.5 0.5 0.5 0.5 0.5 0.5 0.5 0.5 0.5 0.5 0.5 0.5 0.5 0.5 0.5 0.5 0.5 0.5 0.5 0.5 0.5 0.5 0.5 0.5 0.5 0.5 0.5 0.5 0.5 0.5 0.5 0.5 0.5 0.5 0.5 0.5 0.5 0.5 0.5 0.5 0.5 0.5 0.5 0.909469 0.09053100000000003 0.138244 0.861756 0.721989 0.278011 0.159947 0.8400529999999999 0.5 0.5 0.5 0.5 0.5 0.5 0.5 0.5 0.5 0.5 0.5 0.5 0.5 0.5 0.5 0.5 0.5 0.5 0.5 0.5 0.5 0.5 0.5 0.5 0.5 0.5 0.5 0.5 0.5 0.5 0.5 0.5 0.5 0.5 0.5 0.5 0.5 0.5 0.5 0.5 0.5 0.5 0.5 0.5 0.5 0.5 0.5 0.5 0.5 0.5 0.5 0.5 0.012197 0.987803 0.464959 0.535041 0.726803 0.273197 0.0227247 0.9772753 0.5 0.5 0.5 0.5 0.5 0.5 0.5 0.5 0.5 0.5 0.5 0.5 0.5 0.5 0.5 0.5 0.5 0.5 0.5 0.5 0.5 0.5 0.5 0.5 0.5 0.5 0.5 0.5 0.5 0.5 0.5 0.5 0.5 0.5 0.5 0.5 0.5 0.5 0.5 0.5 0.5 0.5 0.5 0.5 0.5 0.5 0.5 0.5 0.5 0.5 0.5 0.5 0.5 0.5 0.5 0.5 0.5 0.5 0.5 0.5 0.5 0.5 0.5 0.5 0.5 0.5 0.5 0.5 0.5 0.5 0.5 0.5 0.5 0.5 0.5 0.5 0.5 0.5 0.5 0.5 0.931897 0.06810300000000002 0.842726 0.15727400000000002 0.857477 0.14252299999999996 0.282977 0.717023 0.5 0.5 0.5 0.5 0.5 0.5 0.5 0.5 0.5 0.5 0.5 0.5 0.5 0.5 0.5 0.5 0.5 0.5 0.5 0.5 0.5 0.5 0.5 0.5 0.5 0.5 0.5 0.5 0.603264 0.396736 0.725954 0.274046 0.277714 0.722286 0.420655 0.579345 0.5 0.5 0.5 0.5 0.5 0.5 0.5 0.5 0.5 0.5 0.5 0.5 0.5 0.5 0.5 0.5 0.5 0.5 0.5 0.5 0.5 0.5 0.5 0.5 0.5 0.5 0.5 0.5 0.5 0.5 0.5 0.5 0.5 0.5 0.5 0.5 0.5 0.5 0.5 0.5 0.5 0.5 0.5 0.5 0.5 0.5 0.5 0.5 0.5 0.5 0.5 0.5 0.5 0.5 0.5 0.5 0.5 0.5 0.5 0.5 0.5 0.5 0.5 0.5 0.5 0.5 0.5 0.5 0.5 0.5 0.5 0.5 0.5 0.5 0.5 0.5 0.5 0.5 0.5 0.5 0.5 0.5 0.5 0.5 0.5 0.5 0.5 0.5 0.5 0.5 0.5 0.5 0.5 0.5 0.5 0.5 0.5 0.5 0.5 0.5 0.5 0.5 0.5 0.5 0.824942 0.17505800000000005 0.338355 0.661645 0.5 0.5 0.5 0.5 0.5 0.5 0.5 0.5 0.5 0.5 0.5 0.5 0.5 0.5 0.5 0.5 0.5 0.5 0.5 0.5 0.5 0.5 0.5 0.5 0.5 0.5 0.5 0.5 0.5 0.5 0.5 0.5 0.5 0.5 0.5 0.5 0.5 0.5 0.5 0.5 0.5 0.5 0.5 0.5 0.5 0.5 0.5 0.5 0.5 0.5 0.5 0.5 0.5 0.5 0.5 0.5 0.5 0.5 0.5 0.5 0.5 0.5 0.5 0.5 0.5 0.5 0.5 0.5 0.5 0.5 0.5 0.5 0.5 0.5 0.5 0.5 0.5 0.5 0.5 0.5 0.894594 0.105406 0.927404 0.072596 0.813241 0.186759 0.945093 0.05490700000000004 0.5 0.5 0.5 0.5 0.5 0.5 0.5 0.5 0.5 0.5 0.5 0.5 0.5 0.5 0.5 0.5 0.5 0.5 0.5 0.5 0.5 0.5 0.5 0.5 0.5 0.5 0.5 0.5 0.5 0.5 0.5 0.5
-1 2 0
1 -2 0
-2 -3 0
2 3 0
-3 4 0
3 -4 0
-4 -5 0
4 5 0
-5 6 0
5 -6 0
-6 -7 0
6 7 0
-7 8 0
7 -8 0
-8 9 0
8 -9 0
-9 10 0
9 -10 0
-10 -11 0
10 11 0
-11 -12 0
11 12 0
-12 -279 13 0
-12 279 -13 0
12 -280 13 0
12 280 -13 0
-13 -14 0
13 14 0
-14 -283 15 0
-14 283 -15 0
14 -284 15 0
14 284 -15 0
-15 16 0
15 -16 0
-1 -17 0
1 17 0
-17 -2 -289 18 0
-17 -2 289 -18 0
-17 2 -290 18 0
-17 2 290 -18 0
17 -2 -291 18 0
17 -2 291 -18 0
17 2 -292 18 0
17 2 292 -18 0
-18 -3 -19 0
-18 3 -19 0
18 -3 19 0
18 3 -19 0
-19 -4 20 0
-19 4 20 0
19 -4 -20 0
19 4 -20 0
-20 -5 -21 0
-20 5 21 0
20 -5 -21 0
20 5 21 0
-21 -6 -22 0
-21 6 22 0
21 -6 22 0
21 6 -22 0
-22 -7 -23 0
-22 7 23 0
22 -7 23 0
22 7 23 0
-23 -8 -24 0
-23 8 24 0
23 -8 -24 0
23 8 -24 0
-24 -9 25 0
-24 9 -25 0
24 -9 -25 0
24 9 25 0
-25 -10 -321 26 0
-25 -10 321 -26 0
-25 10 -322 26 0
-25 10 322 -26 0
25 -10 -323 26 0
25 -10 323 -26 0
25 10 -324 26 0
25 10 324 -26 0
-26 -11 -27 0
-26 11 27 0
26 -11 -27 0
26 11 -27 0
-27 -12 28 0
-27 12 28 0
27 -12 28 0
27 12 -28 0
-28 -13 29 0
-28 13 -29 0
28 -13 -29 0
28 13 -29 0
-29 -14 -30 0
-29 14 30 0
29 -14 30 0
29 14 30 0
-30 -15 31 0
-30 15 31 0
30 -15 31 0
30 15 -31 0
-31 -16 32 0
-31 16 -32 0
31 -16 32 0
31 16 32 0
-17 -33 0
17 33 0
-33 -18 34 0
-33 18 -34 0
33 -18 34 0
33 18 -34 0
-34 -19 -355 35 0
-34 -19 355 -35 0
-34 19 -356 35 0
-34 19 356 -35 0
34 -19 -357 35 0
34 -19 357 -35 0
34 19 -358 35 0
34 19 358 -35 0
-35 -20 36 0
-35 20 -36 0
35 -20 -36 0
35 20 -36 0
-36 -21 37 0
-36 21 37 0
36 -21 -37 0
36 21 37 0
-37 -22 38 0
-37 22 -38 0
37 -22 38 0
37 22 -38 0
-38 -23 39 0
-38 23 39 0
38 -23 39 0
38 23 -39 0
-39 -24 40 0
-39 24 40 0
39 -24 -40 0
39 24 -40 0
-40 -25 -41 0
-40 25 -41 0
40 -25 41 0
40 25 41 0
-41 -26 42 0
-41 26 -42 0
41 -26 -42 0
41 26 42 0
-42 -27 43 0
-42 27 -43 0
42 -27 -43 0
42 27 43 0
-43 -28 44 0
-43 28 -44 0
43 -28 44 0
43 28 -44 0
-44 -29 -45 0
-44 29 45 0
44 -29 -45 0
44 29 45 0
-45 -30 -46 0
-45 30 -46 0
45 -30 46 0
45 30 -46 0
-46 -31 47 0
-46 31 -47 0
46 -31 -47 0
46 31 47 0
-47 -32 -48 0
-47 32 -48 0
47 -32 48 0
47 32 48 0
-33 -49 0
33 49 0
-49 -34 50 0
-49 34 50 0
49 -34 50 0
49 34 -50 0
-50 -35 51 0
-50 35 51 0
50 -35 -51 0
50 35 -51 0
-51 -36 52 0
-51 36 -52 0
51 -36 52 0
51 36 52 0
-52 -37 53 0
-52 37 53 0
52 -37 -53 0
52 37 -53 0
-53 -38 -54 0
-53 38 54 0
53 -38 -54 0
53 38 54 0
-54 -39 55 0
-54 39 -55 0
54 -39 -55 0
54 39 -55 0
-55 -40 -437 56 0
-55 -40 437 -56 0
-55 40 -438 56 0
-55 40 438 -56 0
55 -40 -439 56 0
55 -40 439 -56 0
55 40 -440 56 0
55 40 440 -56 0
-56 -41 -57 0
-56 41 -57 0
56 -41 57 0
56 41 57 0
-57 -42 -445 58 0
-57 -42 445 -58 0
-57 42 -446 58 0
-57 42 446 -58 0
57 -42 -447 58 0
57 -42 447 -58 0
57 42 -448 58 0
57 42 448 -58 0
-58 -43 -449 59 0
-58 -43 449 -59 0
-58 43 -450 59 0
-58 43 450 -59 0
58 -43 -451 59 0
58 -43 451 -59 0
58 43 -452 59 0
58 43 452 -59 0
-59 -44 -60 0
-59 44 60 0
59 -44 60 0
59 44 60 0
-60 -45 -61 0
-60 45 -61 0
60 -45 61 0
60 45 -61 0
-61 -46 -62 0
-61 46 62 0
61 -46 62 0
61 46 -62 0
-62 -47 63 0
-62 47 -63 0
62 -47 63 0
62 47 -63 0
-63 -48 -64 0
-63 48 -64 0
63 -48 64 0
63 48 -64 0
-49 -65 0
49 65 0
-65 -50 66 0
-65 50 -66 0
65 -50 -66 0
65 50 -66 0
-66 -51 67 0
-66 51 67 0
66 -51 67 0
66 51 -67 0
-67 -52 68 0
-67 52 68 0
67 -52 -68 0
67 52 68 0
-68 -53 -69 0
-68 53 -69 0
68 -53 69 0
68 53 -69 0
-69 -54 70 0
-69 54 -70 0
69 -54 -70 0
69 54 -70 0
-70 -55 -71 0
-70 55 71 0
70 -55 -71 0
70 55 -71 0
-71 -56 -72 0
-71 56 72 0
71 -56 -72 0
71 56 -72 0
-72 -57 -73 0
-72 57 73 0
72 -57 73 0
72 57 -73 0
-73 -58 -74 0
-73 58 -74 0
73 -58 -74 0
73 58 74 0
-74 -59 75 0
-74 59 -75 0
74 -59 75 0
74 59 75 0
-75 -60 76 0
-75 60 76 0
75 -60 76 0
75 60 -76 0
-76 -61 77 0
-76 61 77 0
76 -61 77 0
76 61 -77 0
-77 -62 -78 0
-77 62 78 0
77 -62 78 0
77 62 -78 0
-78 -63 79 0
-78 63 79 0
78 -63 -79 0
78 63 79 0
-79 -64 -80 0
-79 64 80 0
79 -64 80 0
79 64 -80 0
-65 -81 0
65 81 0
-81 -66 82 0
-81 66 82 0
81 -66 -82 0
81 66 -82 0
-82 -67 83 0
-82 67 83 0
82 -67 -83 0
82 67 -83 0
-83 -68 84 0
-83 68 -84 0
83 -68 84 0
83 68 84 0
-84 -69 -85 0
-84 69 85 0
84 -69 -85 0
84 69 -85 0
-85 -70 -86 0
-85 70 86 0
85 -70 86 0
85 70 86 0
-86 -71 87 0
-86 71 -87 0
86 -71 -87 0
86 71 -87 0
-87 -72 88 0
-87 72 88 0
87 -72 -88 0
87 72 -88 0
-88 -73 89 0
-88 73 89 0
88 -73 -89 0
88 73 -89 0
-89 -74 90 0
-89 74 -90 0
89 -74 -90 0
89 74 90 0
-90 -75 -91 0
-90 75 -91 0
90 -75 91 0
90 75 -91 0
-91 -76 -577 92 0
-91 -76 577 -92 0
-91 76 -578 92 0
-91 76 578 -92 0
91 -76 -579 92 0
91 -76 579 -92 0
91 76 -580 92 0
91 76 580 -92 0
-92 -77 93 0
-92 77 93 0
92 -77 93 0
92 77 -93 0
-93 -78 94 0
-93 78 94 0
93 -78 94 0
93 78 -94 0
-94 -79 -95 0
-94 79 -95 0
94 -79 95 0
94 79 -95 0
-95 -80 -96 0
-95 80 96 0
95 -80 96 0
95 80 96 0
-81 -597 97 0
-81 597 -97 0
81 -598 97 0
81 598 -97 0
-97 -82 -98 0
-97 82 98 0
97 -82 98 0
97 82 -98 0
-98 -83 -99 0
-98 83 -99 0
98 -83 -99 0
98 83 99 0
-99 -84 -100 0
-99 84 -100 0
99 -84 -100 0
99 84 100 0
-100 -85 101 0
-100 85 101 0
100 -85 -101 0
100 85 -101 0
-101 -86 102 0
-101 86 -102 0
101 -86 102 0
101 86 -102 0
-102 -87 -103 0
-102 87 103 0
102 -87 103 0
102 87 -103 0
-103 -88 104 0
-103 88 -104 0
103 -88 104 0
103 88 104 0
-104 -89 105 0
-104 89 105 0
104 -89 105 0
104 89 -105 0
-105 -90 106 0
-105 90 -106 0
105 -90 106 0
105 90 106 0
-106 -91 107 0
-106 91 -107 0
106 -91 -107 0
106 91 107 0
-107 -92 -108 0
-107 92 108 0
107 -92 -108 0
107 92 -108 0
-108 -93 109 0
-108 93 109 0
108 -93 -109 0
108 93 109 0
-109 -94 110 0
-109 94 -110 0
109 -94 -110 0
109 94 -110 0
-110 -95 111 0
-110 95 -111 0
110 -95 111 0
110 95 111 0
-111 -96 -112 0
-111 96 -112 0
111 -96 -112 0
111 96 112 0
-97 113 0
97 -113 0
-113 -98 -114 0
-113 98 -114 0
113 -98 114 0
113 98 -114 0
-114 -99 115 0
-114 99 -115 0
114 -99 -115 0
114 99 -115 0
-115 -100 -116 0
-115 100 -116 0
115 -100 116 0
115 100 -116 0
-116 -101 117 0
-116 101 -117 0
116 -101 -117 0
116 101 -117 0
-117 -102 -118 0
-117 102 118 0
117 -102 118 0
117 102 -118 0
-118 -103 119 0
-118 103 -119 0
118 -103 119 0
118 103 119 0
-119 -104 120 0
-119 104 -120 0
119 -104 120 0
119 104 -120 0
-120 -105 121 0
-120 105 121 0
120 -105 -121 0
120 105 121 0
-121 -106 122 0
-121 106 -122 0
121 -106 -122 0
121 106 -122 0
-122 -107 -123 0
-122 107 123 0
122 -107 123 0
122 107 -123 0
-123 -108 124 0
-123 108 -124 0
123 -108 124 0
123 108 124 0
-124 -109 -125 0
-124 109 -125 0
124 -109 125 0
124 109 125 0
-125 -110 126 0
-125 110 126 0
125 -110 -126 0
125 110 126 0
-126 -111 -127 0
-126 111 127 0
126 -111 127 0
126 111 127 0
-127 -112 128 0
-127 112 128 0
127 -112 -128 0
127 112 128 0
-113 -129 0
113 129 0
-129 -114 -130 0
-129 114 130 0
129 -114 130 0
129 114 -130 0
-130 -115 -727 131 0
-130 -115 727 -131 0
-130 115 -728 131 0
-130 115 728 -131 0
130 -115 -729 131 0
130 -115 729 -131 0
130 115 -730 131 0
130 115 730 -131 0
-131 -116 -132 0
-131 116 -132 0
131 -116 -132 0
131 116 132 0
-132 -117 133 0
-132 117 133 0
132 -117 -133 0
132 117 -133 0
-133 -118 134 0
-133 118 134 0
133 -118 -134 0
133 118 -134 0
-134 -119 -135 0
-134 119 -135 0
134 -119 135 0
134 119 -135 0
-135 -120 136 0
-135 120 -136 0
135 -120 -136 0
135 120 -136 0
-136 -121 137 0
-136 121 -137 0
136 -121 137 0
136 121 -137 0
-137 -122 -138 0
-137 122 -138 0
137 -122 138 0
137 122 -138 0
-138 -123 -139 0
-138 123 139 0
138 -123 139 0
138 123 139 0
-139 -124 -763 140 0
-139 -124 763 -140 0
-139 124 -764 140 0
-139 124 764 -140 0
139 -124 -765 140 0
139 -124 765 -140 0
139 124 -766 140 0
139 124 766 -140 0
-140 -125 -141 0
-140 125 141 0
140 -125 141 0
140 125 141 0
-141 -126 142 0
-141 126 142 0
141 -126 142 0
141 126 -142 0
-142 -127 -143 0
-142 127 -143 0
142 -127 143 0
142 127 -143 0
-143 -128 144 0
-143 128 144 0
143 -128 -144 0
143 128 144 0
-129 -145 0
129 145 0
-145 -130 -146 0
-145 130 146 0
145 -130 -146 0
145 130 146 0
-146 -131 147 0
-146 131 -147 0
146 -131 147 0
146 131 147 0
-147 -132 -148 0
-147 132 148 0
147 -132 -148 0
147 132 148 0
-148 -133 149 0
-148 133 149 0
148 -133 149 0
148 133 -149 0
-149 -134 150 0
-149 134 150 0
149 -134 -150 0
149 134 -150 0
-150 -135 151 0
-150 135 -151 0
150 -135 -151 0
150 135 -151 0
-151 -136 152 0
-151 136 -152 0
151 -136 -152 0
151 136 -152 0
-152 -137 -153 0
-152 137 153 0
152 -137 153 0
152 137 153 0
-153 -138 -154 0
-153 138 154 0
153 -138 -154 0
153 138 -154 0
-154 -139 -155 0
-154 139 -155 0
154 -139 -155 0
154 139 155 0
-155 -140 156 0
-155 140 -156 0
155 -140 156 0
155 140 156 0
-156 -141 -157 0
-156 141 -157 0
156 -141 157 0
156 141 -157 0
-157 -142 -158 0
-157 142 158 0
157 -142 158 0
157 142 -158 0
-158 -143 -837 159 0
-158 -143 837 -159 0
-158 143 -838 159 0
-158 143 838 -159 0
158 -143 -839 159 0
158 -143 839 -159 0
158 143 -840 159 0
158 143 840 -159 0
-159 -144 -160 0
-159 144 160 0
159 -144 160 0
159 144 160 0
-145 -845 161 0
-145 845 -161 0
145 -846 161 0
145 846 -161 0
-161 -146 -162 0
-161 146 162 0
161 -146 162 0
161 146 162 0
-162 -147 163 0
-162 147 163 0
162 -147 163 0
162 147 -163 0
-163 -148 -164 0
-163 148 -164 0
163 -148 -164 0
163 148 164 0
-164 -149 165 0
-164 149 165 0
164 -149 165 0
164 149 -165 0
-165 -150 -166 0
-165 150 -166 0
165 -150 -166 0
165 150 166 0
-166 -151 167 0
-166 151 -167 0
166 -151 -167 0
166 151 -167 0
-167 -152 168 0
-167 152 -168 0
167 -152 168 0
167 152 -168 0
-168 -153 -875 169 0
-168 -153 875 -169 0
-168 153 -876 169 0
-168 153 876 -169 0
168 -153 -877 169 0
168 -153 877 -169 0
168 153 -878 169 0
168 153 878 -169 0
-169 -154 -170 0
-169 154 170 0
169 -154 170 0
169 154 170 0
-170 -155 -171 0
-170 155 171 0
170 -155 171 0
170 155 -171 0
-171 -156 172 0
-171 156 -172 0
171 -156 -172 0
171 156 -172 0
-172 -157 -891 173 0
-172 -157 891 -173 0
-172 157 -892 173 0
-172 157 892 -173 0
172 -157 -893 173 0
172 -157 893 -173 0
172 157 -894 173 0
172 157 894 -173 0
-173 -158 -895 174 0
-173 -158 895 -174 0
-173 158 -896 174 0
-173 158 896 -174 0
173 -158 -897 174 0
173 -158 897 -174 0
173 158 -898 174 0
173 158 898 -174 0
-174 -159 175 0
-174 159 -175 0
174 -159 -175 0
174 159 175 0
-175 -160 -176 0
-175 160 176 0
175 -160 176 0
175 160 176 0
-161 177 0
161 -177 0
-177 -162 -909 178 0
-177 -162 909 -178 0
-177 162 -910 178 0
-177 162 910 -178 0
177 -162 -911 178 0
177 -162 911 -178 0
177 162 -912 178 0
177 162 912 -178 0
-178 -163 179 0
-178 163 -179 0
178 -163 179 0
178 163 -179 0
-179 -164 180 0
-179 164 180 0
179 -164 -180 0
179 164 -180 0
-180 -165 181 0
-180 165 -181 0
180 -165 181 0
180 165 181 0
-181 -166 182 0
-181 166 -182 0
181 -166 182 0
181 166 182 0
-182 -167 183 0
-182 167 -183 0
182 -167 -183 0
182 167 -183 0
-183 -168 -184 0
-183 168 184 0
183 -168 184 0
183 168 -184 0
-184 -169 185 0
-184 169 -185 0
184 -169 -185 0
184 169 185 0
-185 -170 186 0
-185 170 186 0
185 -170 -186 0
185 170 186 0
-186 -171 187 0
-186 171 -187 0
186 -171 187 0
186 171 187 0
-187 -172 -188 0
-187 172 -188 0
187 -172 188 0
187 172 -188 0
-188 -173 -189 0
-188 173 189 0
188 -173 -189 0
188 173 -189 0
-189 -174 -190 0
-189 174 -190 0
189 -174 190 0
189 174 -190 0
-190 -175 191 0
-190 175 -191 0
190 -175 191 0
190 175 -191 0
-191 -176 -192 0
-191 176 192 0
191 -176 -192 0
191 176 -192 0
-177 -193 0
177 193 0
-193 -178 194 0
-193 178 194 0
193 -178 -194 0
193 178 -194 0
-194 -179 195 0
-194 179 -195 0
194 -179 195 0
194 179 -195 0
-195 -180 -196 0
-195 180 196 0
195 -180 -196 0
195 180 -196 0
-196 -181 -197 0
-196 181 197 0
196 -181 -197 0
196 181 197 0
-197 -182 198 0
-197 182 -198 0
197 -182 -198 0
197 182 198 0
-198 -183 199 0
-198 183 199 0
198 -183 199 0
198 183 -199 0
-199 -184 -200 0
-199 184 200 0
199 -184 200 0
199 184 200 0
-200 -185 201 0
-200 185 201 0
200 -185 201 0
200 185 -201 0
-201 -186 202 0
-201 186 -202 0
201 -186 202 0
201 186 -202 0
-202 -187 -1007 203 0
-202 -187 1007 -203 0
-202 187 -1008 203 0
-202 187 1008 -203 0
202 -187 -1009 203 0
202 -187 1009 -203 0
202 187 -1010 203 0
202 187 1010 -203 0
-203 -188 -204 0
-203 188 204 0
203 -188 -204 0
203 188 -204 0
-204 -189 205 0
-204 189 205 0
204 -189 -205 0
204 189 -205 0
-205 -190 206 0
-205 190 -206 0
205 -190 -206 0
205 190 -206 0
-206 -191 207 0
-206 191 207 0
206 -191 207 0
206 191 -207 0
-207 -192 -208 0
-207 192 -208 0
207 -192 -208 0
207 192 208 0
-193 209 0
193 -209 0
-209 -194 -210 0
-209 194 210 0
209 -194 210 0
209 194 -210 0
-210 -195 -1037 211 0
-210 -195 1037 -211 0
-210 195 -1038 211 0
-210 195 1038 -211 0
210 -195 -1039 211 0
210 -195 1039 -211 0
210 195 -1040 211 0
210 195 1040 -211 0
-211 -196 212 0
-211 196 -212 0
211 -196 212 0
211 196 -212 0
-212 -197 213 0
-212 197 -213 0
212 -197 -213 0
212 197 213 0
-213 -198 214 0
-213 198 -214 0
213 -198 -214 0
213 198 214 0
-214 -199 -215 0
-214 199 215 0
214 -199 -215 0
214 199 215 0
-215 -200 216 0
-215 200 216 0
215 -200 216 0
215 200 -216 0
-216 -201 217 0
-216 201 217 0
216 -201 217 0
216 201 -217 0
-217 -202 218 0
-217 202 218 0
217 -202 -218 0
217 202 -218 0
-218 -203 -219 0
-218 203 219 0
218 -203 -219 0
218 203 -219 0
-219 -204 220 0
-219 204 -220 0
219 -204 -220 0
219 204 -220 0
-220 -205 221 0
-220 205 221 0
220 -205 -221 0
220 205 -221 0
-221 -206 -1081 222 0
-221 -206 1081 -222 0
-221 206 -1082 222 0
-221 206 1082 -222 0
221 -206 -1083 222 0
221 -206 1083 -222 0
221 206 -1084 222 0
221 206 1084 -222 0
-222 -207 -223 0
-222 207 223 0
222 -207 -223 0
222 207 223 0
-223 -208 -224 0
-223 208 -224 0
223 -208 224 0
223 208 -224 0
-209 -225 0
209 225 0
-225 -210 226 0
-225 210 -226 0
225 -210 -226 0
225 210 -226 0
-226 -211 -1099 227 0
-226 -211 1099 -227 0
-226 211 -1100 227 0
-226 211 1100 -227 0
226 -211 -1101 227 0
226 -211 1101 -227 0
226 211 -1102 227 0
226 211 1102 -227 0
-227 -212 228 0
-227 212 -228 0
227 -212 228 0
227 212 228 0
-228 -213 229 0
-228 213 -229 0
228 -213 -229 0
228 213 229 0
-229 -214 230 0
-229 214 -230 0
229 -214 230 0
229 214 230 0
-230 -215 231 0
-230 215 -231 0
230 -215 -231 0
230 215 231 0
-231 -216 -232 0
-231 216 232 0
231 -216 -232 0
231 216 -232 0
-232 -217 233 0
-232 217 -233 0
232 -217 233 0
232 217 233 0
-233 -218 234 0
-233 218 234 0
233 -218 -234 0
233 218 -234 0
-234 -219 -235 0
-234 219 -235 0
234 -219 -235 0
234 219 235 0
-235 -220 236 0
-235 220 -236 0
235 -220 -236 0
235 220 236 0
-236 -221 -237 0
-236 221 -237 0
236 -221 237 0
236 221 -237 0
-237 -222 -238 0
-237 222 -238 0
237 -222 238 0
237 222 -238 0
-238 -223 239 0
-238 223 239 0
238 -223 -239 0
238 223 239 0
-239 -224 -240 0
-239 224 -240 0
239 -224 240 0
239 224 -240 0
-225 -1155 241 0
-225 1155 -241 0
225 -1156 241 0
225 1156 -241 0
-241 -226 -242 0
-241 226 242 0
241 -226 -242 0
241 226 -242 0
-242 -227 -243 0
-242 227 243 0
242 -227 243 0
242 227 -243 0
-243 -228 -244 0
-243 228 -244 0
243 -228 244 0
243 228 -244 0
-244 -229 245 0
-244 229 245 0
244 -229 -245 0
244 229 -245 0
-245 -230 246 0
-245 230 246 0
245 -230 246 0
245 230 -246 0
-246 -231 247 0
-246 231 247 0
246 -231 -247 0
246 231 -247 0
-247 -232 248 0
-247 232 248 0
247 -232 -248 0
247 232 248 0
-248 -233 -249 0
-248 233 -249 0
248 -233 -249 0
248 233 249 0
-249 -234 -250 0
-249 234 250 0
249 -234 250 0
249 234 250 0
-250 -235 -251 0
-250 235 -251 0
250 -235 251 0
250 235 -251 0
-251 -236 -1197 252 0
-251 -236 1197 -252 0
-251 236 -1198 252 0
-251 236 1198 -252 0
251 -236 -1199 252 0
251 -236 1199 -252 0
251 236 -1200 252 0
251 236 1200 -252 0
-252 -237 -253 0
-252 237 253 0
252 -237 -253 0
252 237 -253 0
-253 -238 254 0
-253 238 254 0
253 -238 254 0
253 238 -254 0
-254 -239 255 0
-254 239 -255 0
254 -239 -255 0
254 239 -255 0
-255 -240 256 0
-255 240 -256 0
255 -240 256 0
255 240 -256 0
256 0
