data/benchmarks/bayes/90-16-8-q.gr
p tw 1216 953
166 181
214 230
198 213
15 30
67 68
47 62
99 100
107 122
159 160
139 154
8 9
40 41
18 291
21 37
199 214
251 252
48 63
100 101
80 95
132 133
115 727
140 155
157 891
211 1100
172 187
41 42
73 74
232 247
133 134
187 1008
14 15
153 875
173 188
225 226
22 37
74 75
59 450
106 107
130 730
114 129
166 167
15 16
225 1156
47 48
143 839
226 227
158 837
206 221
55 70
107 108
88 104
147 162
199 200
180 196
35 357
29 45
202 1010
131 730
239 254
140 141
168 877
121 137
178 909
232 233
213 229
81 82
62 78
240 255
173 174
55 438
22 23
154 170
3 19
2 292
233 234
114 115
95 111
14 284
155 171
206 207
187 203
55 56
36 52
214 229
40 440
96 112
140 765
147 148
128 144
207 208
188 204
239 240
220 236
21 36
69 85
222 1081
129 145
161 177
211 1099
10 26
221 237
43 450
205 220
54 69
102 118
181 182
187 1007
162 178
146 161
19 358
194 210
43 59
130 729
59 449
81 598
87 102
103 119
135 151
226 1102
214 215
195 211
179 194
227 243
28 43
76 92
17 290
88 103
136 152
120 135
168 184
21 22
180 195
228 244
29 44
202 1009
77 93
61 76
113 114
121 136
169 185
153 168
205 206
2 17
54 55
161 846
213 228
62 77
110 126
94 109
146 147
55 437
154 169
202 218
3 18
2 291
51 67
35 50
87 88
95 110
143 159
58 448
127 142
179 180
28 29
9 25
187 202
235 251
36 51
88 89
174 897
68 83
34 356
120 121
140 764
128 143
180 181
158 898
160 175
29 30
177 911
61 62
42 58
220 235
69 84
121 122
101 116
153 154
134 150
2 3
213 214
178 912
10 25
62 63
92 580
94 95
43 449
75 91
102 117
154 155
3 4
35 36
19 357
16 32
194 209
246 247
43 58
95 96
127 128
130 728
108 124
226 1101
162 909
135 150
187 188
58 452
36 37
17 33
68 69
49 65
227 242
76 91
211 1039
109 125
17 289
168 183
220 221
201 217
69 70
50 66
101 102
82 98
161 162
142 158
10 11
23 39
253 254
234 250
102 103
83 99
124 765
194 195
57 446
175 191
43 44
24 40
56 72
173 895
135 136
206 1081
116 132
252 1197
58 447
176 192
227 228
208 224
76 77
9 24
236 1198
57 73
42 448
174 896
34 355
168 169
140 763
149 165
158 897
26 323
76 580
30 46
177 910
221 1084
209 225
42 57
90 106
150 166
134 149
182 198
31 47
92 579
75 90
123 139
183 199
215 231
16 31
64 80
124 140
108 123
210 1037
156 172
9 10
139 766
5 21
58 451
145 846
216 232
97 113
211 1038
109 124
157 173
189 205
42 43
201 216
241 1155
82 97
134 135
142 157
190 206
222 238
23 38
75 76
234 249
83 98
91 578
131 147
115 130
124 764
57 445
175 190
223 239
56 71
108 109
173 894
116 131
226 241
164 180
162 912
49 50
208 223
236 1197
57 72
109 110
42 447
89 104
167 182
149 164
201 202
197 213
50 51
26 322
76 579
30 45
82 83
158 896
63 79
221 1083
90 105
142 143
200 215
56 439
23 24
251 1200
4 20
182 197
234 235
83 84
141 156
115 116
12 280
195 1039
123 138
175 176
233 248
24 25
56 57
37 53
215 230
64 79
116 117
174 189
173 898
156 171
252 1200
57 58
167 168
38 54
89 90
70 86
149 150
159 838
207 222
130 146
211 1037
30 31
97 597
11 27
189 204
241 242
90 91
148 163
200 201
71 87
182 183
163 179
31 32
141 142
169 878
12 28
44 60
222 237
123 124
181 196
104 120
172 892
91 577
124 763
215 216
10 323
122 137
174 175
25 321
45 61
196 212
156 157
173 893
227 1102
137 153
5 6
210 1040
18 34
248 249
229 245
97 98
203 1010
78 94
18 290
189 190
170 186
148 149
19 35
26 321
63 78
111 127
222 223
56 438
203 219
251 1199
4 19
52 68
12 279
195 1038
144 160
122 123
236 252
37 52
85 101
225 1155
143 838
177 193
26 42
237 253
70 85
35 356
118 134
159 837
131 729
168 876
210 226
11 26
63 64
115 730
157 894
151 167
4 5
169 877
211 227
44 59
153 878
172 891
37 38
10 322
196 211
14 283
155 170
227 1101
158 840
40 439
185 201
96 111
18 33
70 71
229 244
15 284
203 1009
130 131
188 203
18 289
11 12
170 185
218 234
163 164
221 236
44 45
56 437
25 41
203 218
255 256
162 177
144 159
196 197
81 597
103 118
155 156
236 251
25 324
137 138
195 210
143 837
247 248
18 19
229 230
136 151
188 189
59 75
35 355
118 133
170 171
228 243
202 1008
77 92
129 130
131 728
168 875
222 1084
210 225
111 112
115 729
169 184
92 108
221 222
161 845
157 893
211 1102
151 166
203 204
184 200
110 125
162 163
33 49
187 1010
202 217
254 255
2 290
51 66
103 104
125 141
84 100
153 877
236 237
59 452
217 233
85 86
10 321
143 158
66 82
195 196
177 178
235 250
158 174
136 137
158 839
40 438
7 23
117 133
118 119
228 229
15 283
99 115
77 78
58 74
210 211
191 207
169 170
40 56
178 911
151 152
132 148
110 111
91 107
243 244
224 240
202 203
25 40
73 89
51 52
19 356
32 48
55 440
165 181
143 144
130 727
14 30
226 1100
235 236
106 122
65 81
198 214
47 63
6 22
139 155
50 65
98 114
202 1007
222 1083
80 96
115 728
39 55
211 1101
172 188
25 26
43 452
187 1009
24 39
72 88
2 289
84 99
17 18
58 446
176 191
174 895
40 437
117 132
17 292
177 909
58 73
150 165
178 910
31 46
92 578
91 106
183 198
231 247
84 85
19 355
32 47
55 439
158 159
217 218
124 139
206 1084
226 1099
139 765
5 20
58 450
145 845
216 231
117 118
250 251
34 358
157 172
209 210
140 766
6 21
58 59
191 192
98 113
150 151
222 1082
190 205
242 243
113 129
39 54
91 92
43 451
131 146
183 184
205 221
54 70
13 29
165 166
223 238
146 162
72 87
124 125
105 121
164 179
216 217
58 445
65 66
87 103
162 911
46 62
198 199
179 195
42 446
157 158
28 44
6 7
138 154
17 291
139 140
158 895
120 136
76 578
98 99
197 212
79 95
221 1082
230 246
190 191
61 77
39 40
171 187
20 36
172 173
153 169
92 577
131 132
2 18
112 128
223 224
94 110
72 73
204 220
57 448
53 69
231 246
13 280
164 165
35 51
145 161
173 897
206 1083
252 1199
139 764
58 449
127 143
38 53
86 102
236 1200
197 198
130 145
174 898
68 84
34 357
178 194
27 43
238 254
160 176
177 912
71 86
119 135
163 178
101 117
12 27
60 76
104 119
152 168
1 17
231 232
212 228
13 28
45 60
93 109
105 120
173 892
137 152
38 39
210 1039
162 910
46 61
78 93
126 142
42 445
138 153
186 202
211 1040
19 34
71 72
230 245
76 577
221 1081
79 94
111 126
12 13
171 186
219 235
251 1198
20 35
52 67
104 105
112 127
195 1037
13 14
91 580
45 46
124 766
204 219
57 447
53 68
105 106
85 100
13 279
173 896
193 209
206 1082
46 47
26 41
78 79
139 763
252 1198
237 252
86 101
138 139
236 1199
19 20
178 193
230 231
27 42
79 80
238 253
26 324
119 134
171 172
20 21
52 53
169 876
211 226
60 75
152 167
204 205
53 54
34 50
212 227
93 108
145 146
173 891
26 27
227 1100
185 200
237 238
210 1038
86 87
67 83
203 1008
126 141
178 179
159 175
27 28
159 840
8 24
186 201
238 239
218 233
119 120
100 116
211 212
241 1156
192 208
60 61
41 57
219 234
251 1197
152 153
133 149
1 2
212 213
172 894
244 245
91 579
115 131
93 94
225 241
74 90
25 323
185 186
166 182
15 31
245 246
226 242
126 127
59 74
107 123
186 187
167 183
218 219
131 727
18 292
89 105
199 215
48 64
92 107
140 156
157 892
219 220
200 216
184 199
232 248
169 875
56 440
81 97
141 157
125 140
153 876
173 189
22 38
195 1040
59 451
233 249
217 232
34 49
249 250
252 253
66 81
114 130
193 194
143 840
158 173
174 190
158 838
206 222
7 22
59 60
55 71
227 1099
67 82
99 114
203 1007
147 163
35 358
159 174
159 839
191 206
8 23
207 223
239 255
40 55
92 93
168 878
97 598
100 115
148 164
132 147
184 185
33 34
192 207
240 256
224 239
41 56
73 88
125 126
133 148
181 197
165 180
34 35
172 893
14 29
66 67
74 89
10 324
122 138
106 121
25 322
7 8
